9
0, 256, 451, 614, 552, 835, 543, 210, 526
256, 0, 677, 864, 799, 1056, 661, 429, 747
451, 677, 0, 242, 173, 795, 812, 249, 572
614, 864, 242, 0, 70, 639, 816, 448, 502
552, 799, 173, 70, 0, 667, 793, 379, 498
835, 1056, 795, 639, 667, 0, 544, 828, 310
543, 661, 812, 816, 793, 544, 0, 676, 347
210, 429, 249, 448, 379, 828, 676, 0, 542
526, 747, 572, 502, 498, 310, 347, 542, 0
